牛客/2019暑期多校训练营/数据/9_D_Knapsack Cryptosystem/20.in
36 5590861082725326
257262857337561 344987777914526 181361745547264 362723491094528 404106821847866 223698721623647 354714263600040 206726621311626 48632428427570 181748776552842 226573589783682 398236714027232 405752471206478 233185999477844 365377689123579 69496743880828 95940836069236 290675355619685 357669404854348 164979810253971 11419315336643 274765469457538 160439940821051 9983094900082 94803468933223 300621102695673 163846740828808 172987108656137 176852437608998 420796686321730 376731657504711 352416731810896 406664314591560 397595482176182 223791796339597 113374845023923
